
Gurobi 7.5.2 (win64, Python) logging started 03/19/18 10:13:20

Academic license - for non-commercial use only

Gurobi 7.5.2 (win64, Python) logging started 03/19/18 10:13:36

Academic license - for non-commercial use only

Gurobi 7.5.2 (win64, Python) logging started 03/19/18 10:28:10

Academic license - for non-commercial use only

Gurobi 7.5.2 (win64, Python) logging started 03/19/18 10:30:20

Academic license - for non-commercial use only

Gurobi 7.5.2 (win64, Python) logging started 03/19/18 10:32:18

Academic license - for non-commercial use only

Gurobi 7.5.2 (win64, Python) logging started 03/19/18 10:35:03

Academic license - for non-commercial use only

Gurobi 7.5.2 (win64, Python) logging started 03/19/18 10:49:29

Academic license - for non-commercial use only

Gurobi 7.5.2 (win64, Python) logging started 03/19/18 10:50:46

Academic license - for non-commercial use only

Gurobi 7.5.2 (win64, Python) logging started 03/19/18 10:51:47

Academic license - for non-commercial use only

Gurobi 7.5.2 (win64, Python) logging started 03/19/18 10:55:25

Academic license - for non-commercial use only

Gurobi 7.5.2 (win64, Python) logging started 03/19/18 10:55:53

Academic license - for non-commercial use only

Gurobi 7.5.2 (win64, Python) logging started 03/19/18 10:57:36

Academic license - for non-commercial use only

Gurobi 7.5.2 (win64, Python) logging started 03/19/18 10:59:32

Academic license - for non-commercial use only

Gurobi 7.5.2 (win64, Python) logging started 03/19/18 11:07:08

Academic license - for non-commercial use only

Gurobi 7.5.2 (win64, Python) logging started 03/19/18 11:07:55

Academic license - for non-commercial use only

Gurobi 7.5.2 (win64, Python) logging started 03/19/18 11:10:53

Academic license - for non-commercial use only

Gurobi 7.5.2 (win64, Python) logging started 03/19/18 11:11:21

Academic license - for non-commercial use only

Gurobi 7.5.2 (win64, Python) logging started 03/19/18 11:11:51

Academic license - for non-commercial use only

Gurobi 7.5.2 (win64, Python) logging started 03/19/18 11:13:03

Academic license - for non-commercial use only

Gurobi 7.5.2 (win64, Python) logging started 03/19/18 12:26:35

Academic license - for non-commercial use only

Gurobi 7.5.2 (win64, Python) logging started 03/19/18 12:27:11

Academic license - for non-commercial use only

Gurobi 7.5.2 (win64, Python) logging started 03/19/18 12:32:33

Academic license - for non-commercial use only

Gurobi 7.5.2 (win64, Python) logging started 03/19/18 12:33:11

Academic license - for non-commercial use only

Gurobi 7.5.2 (win64, Python) logging started 03/19/18 12:33:36

Academic license - for non-commercial use only

Gurobi 7.5.2 (win64, Python) logging started 03/19/18 12:33:58

Academic license - for non-commercial use only

Gurobi 7.5.2 (win64, Python) logging started 03/19/18 12:34:23

Academic license - for non-commercial use only

Gurobi 7.5.2 (win64, Python) logging started 03/19/18 12:35:24

Academic license - for non-commercial use only

Gurobi 7.5.2 (win64, Python) logging started 03/19/18 12:35:46

Academic license - for non-commercial use only

Gurobi 7.5.2 (win64, Python) logging started 03/19/18 12:36:51

Academic license - for non-commercial use only

Gurobi 7.5.2 (win64, Python) logging started 03/19/18 12:37:44

Academic license - for non-commercial use only

Gurobi 7.5.2 (win64, Python) logging started 03/19/18 12:39:06

Academic license - for non-commercial use only

Gurobi 7.5.2 (win64, Python) logging started 03/19/18 12:49:10

Academic license - for non-commercial use only

Gurobi 7.5.2 (win64, Python) logging started 03/19/18 12:49:31

Academic license - for non-commercial use only

Gurobi 7.5.2 (win64, Python) logging started 03/19/18 12:49:50

Academic license - for non-commercial use only

Gurobi 7.5.2 (win64, Python) logging started 03/19/18 12:52:07

Academic license - for non-commercial use only

Gurobi 7.5.2 (win64, Python) logging started 03/19/18 12:52:31

Academic license - for non-commercial use only

Gurobi 7.5.2 (win64, Python) logging started 03/19/18 12:53:09

Academic license - for non-commercial use only

Gurobi 7.5.2 (win64, Python) logging started 03/19/18 12:53:27

Academic license - for non-commercial use only

Gurobi 7.5.2 (win64, Python) logging started 03/19/18 12:54:26

Academic license - for non-commercial use only

Gurobi 7.5.2 (win64, Python) logging started 03/19/18 12:56:06

Academic license - for non-commercial use only

Gurobi 7.5.2 (win64, Python) logging started 03/19/18 12:56:34

Academic license - for non-commercial use only

Gurobi 7.5.2 (win64, Python) logging started 03/19/18 12:58:04

Academic license - for non-commercial use only

Gurobi 7.5.2 (win64, Python) logging started 03/19/18 12:58:47

Academic license - for non-commercial use only

Gurobi 7.5.2 (win64, Python) logging started 03/19/18 12:59:20

Academic license - for non-commercial use only

Gurobi 7.5.2 (win64, Python) logging started 03/19/18 13:14:49

Academic license - for non-commercial use only

Gurobi 7.5.2 (win64, Python) logging started 03/19/18 13:15:06

Academic license - for non-commercial use only

Gurobi 7.5.2 (win64, Python) logging started 03/19/18 17:49:17

Academic license - for non-commercial use only

Gurobi 7.5.2 (win64, Python) logging started 03/19/18 17:50:39

Academic license - for non-commercial use only

Gurobi 7.5.2 (win64, Python) logging started 03/19/18 17:56:08

Academic license - for non-commercial use only

Gurobi 7.5.2 (win64, Python) logging started 03/19/18 19:55:20

Academic license - for non-commercial use only

Gurobi 7.5.2 (win64, Python) logging started 03/19/18 19:55:30

Academic license - for non-commercial use only

Gurobi 7.5.2 (win64, Python) logging started 03/19/18 19:56:48

Academic license - for non-commercial use only

Gurobi 7.5.2 (win64, Python) logging started 03/19/18 19:57:09

Academic license - for non-commercial use only

Gurobi 7.5.2 (win64, Python) logging started 03/19/18 19:58:15

Academic license - for non-commercial use only

Gurobi 7.5.2 (win64, Python) logging started 03/19/18 20:07:49

Academic license - for non-commercial use only

Gurobi 7.5.2 (win64, Python) logging started 03/19/18 20:13:24

Academic license - for non-commercial use only

Gurobi 7.5.2 (win64, Python) logging started 03/19/18 20:13:33

Academic license - for non-commercial use only

Gurobi 7.5.2 (win64, Python) logging started 03/19/18 20:15:56

Academic license - for non-commercial use only

Gurobi 7.5.2 (win64, Python) logging started 03/19/18 20:17:30

Academic license - for non-commercial use only

Gurobi 7.5.2 (win64, Python) logging started 03/19/18 20:17:33

Academic license - for non-commercial use only

Gurobi 7.5.2 (win64, Python) logging started 03/19/18 20:20:55

Academic license - for non-commercial use only

Gurobi 7.5.2 (win64, Python) logging started 03/19/18 20:24:03

Academic license - for non-commercial use only

Gurobi 7.5.2 (win64, Python) logging started 03/19/18 20:25:13

Academic license - for non-commercial use only

Gurobi 7.5.2 (win64, Python) logging started 03/19/18 20:25:26

Academic license - for non-commercial use only

Gurobi 7.5.2 (win64, Python) logging started 03/19/18 20:25:34

Academic license - for non-commercial use only

Gurobi 7.5.2 (win64, Python) logging started 03/19/18 20:26:15

Academic license - for non-commercial use only

Gurobi 7.5.2 (win64, Python) logging started 03/19/18 20:27:18

Academic license - for non-commercial use only

Gurobi 7.5.2 (win64, Python) logging started 03/19/18 20:27:46

Academic license - for non-commercial use only

Gurobi 7.5.2 (win64, Python) logging started 03/19/18 20:28:28

Academic license - for non-commercial use only

Gurobi 7.5.2 (win64, Python) logging started 03/19/18 20:28:55

Academic license - for non-commercial use only

Gurobi 7.5.2 (win64, Python) logging started 03/20/18 09:29:42

Academic license - for non-commercial use only

Gurobi 7.5.2 (win64, Python) logging started 03/20/18 09:58:02

Academic license - for non-commercial use only

Gurobi 7.5.2 (win64, Python) logging started 03/20/18 10:00:09

Academic license - for non-commercial use only

Gurobi 7.5.2 (win64, Python) logging started 03/20/18 10:01:14

Academic license - for non-commercial use only

Gurobi 7.5.2 (win64, Python) logging started 03/20/18 10:01:24

Academic license - for non-commercial use only

Gurobi 7.5.2 (win64, Python) logging started 03/20/18 10:01:51

Academic license - for non-commercial use only

Gurobi 7.5.2 (win64, Python) logging started 03/20/18 10:16:13

Academic license - for non-commercial use only

Gurobi 7.5.2 (win64, Python) logging started 03/20/18 10:36:19

Academic license - for non-commercial use only

Gurobi 7.5.2 (win64, Python) logging started 03/20/18 10:54:51

Academic license - for non-commercial use only

Gurobi 7.5.2 (win64, Python) logging started 03/20/18 10:56:24

Academic license - for non-commercial use only

Gurobi 7.5.2 (win64, Python) logging started 03/20/18 10:58:40

Academic license - for non-commercial use only

Gurobi 7.5.2 (win64, Python) logging started 03/20/18 11:00:47

Academic license - for non-commercial use only

Gurobi 7.5.2 (win64, Python) logging started 03/20/18 11:01:29

Academic license - for non-commercial use only

Gurobi 7.5.2 (win64, Python) logging started 03/20/18 11:02:19

Academic license - for non-commercial use only

Gurobi 7.5.2 (win64, Python) logging started 03/20/18 11:09:00

Academic license - for non-commercial use only

Gurobi 7.5.2 (win64, Python) logging started 03/20/18 11:11:31

Academic license - for non-commercial use only

Gurobi 7.5.2 (win64, Python) logging started 03/20/18 11:13:16

Academic license - for non-commercial use only

Gurobi 7.5.2 (win64, Python) logging started 03/20/18 11:14:05

Academic license - for non-commercial use only

Gurobi 7.5.2 (win64, Python) logging started 03/20/18 11:15:27

Academic license - for non-commercial use only

Gurobi 7.5.2 (win64, Python) logging started 03/20/18 11:16:07

Academic license - for non-commercial use only

Gurobi 7.5.2 (win64, Python) logging started 03/20/18 11:17:15

Academic license - for non-commercial use only

Gurobi 7.5.2 (win64, Python) logging started 03/20/18 11:22:14

Academic license - for non-commercial use only

Gurobi 7.5.2 (win64, Python) logging started 03/20/18 11:24:09

Academic license - for non-commercial use only

Gurobi 7.5.2 (win64, Python) logging started 03/20/18 12:32:21

Academic license - for non-commercial use only

Gurobi 7.5.2 (win64, Python) logging started 03/20/18 12:35:30

Academic license - for non-commercial use only

Gurobi 7.5.2 (win64, Python) logging started 03/20/18 12:36:28

Academic license - for non-commercial use only

Gurobi 7.5.2 (win64, Python) logging started 03/20/18 12:37:13

Academic license - for non-commercial use only

Gurobi 7.5.2 (win64, Python) logging started 03/20/18 12:41:13

Academic license - for non-commercial use only

Gurobi 7.5.2 (win64, Python) logging started 03/20/18 12:45:02

Academic license - for non-commercial use only

Gurobi 7.5.2 (win64, Python) logging started 03/20/18 12:49:00

Academic license - for non-commercial use only

Gurobi 7.5.2 (win64, Python) logging started 03/20/18 12:49:12

Academic license - for non-commercial use only

Gurobi 7.5.2 (win64, Python) logging started 03/20/18 12:49:33

Academic license - for non-commercial use only

Gurobi 7.5.2 (win64, Python) logging started 03/20/18 12:50:49

Academic license - for non-commercial use only

Gurobi 7.5.2 (win64, Python) logging started 03/20/18 12:51:29

Academic license - for non-commercial use only

Gurobi 7.5.2 (win64, Python) logging started 03/20/18 12:51:42

Academic license - for non-commercial use only

Gurobi 7.5.2 (win64, Python) logging started 03/20/18 12:52:26

Academic license - for non-commercial use only

Gurobi 7.5.2 (win64, Python) logging started 03/20/18 12:53:43

Academic license - for non-commercial use only

Gurobi 7.5.2 (win64, Python) logging started 03/20/18 12:54:14

Academic license - for non-commercial use only

Gurobi 7.5.2 (win64, Python) logging started 03/20/18 12:54:36

Academic license - for non-commercial use only

Gurobi 7.5.2 (win64, Python) logging started 03/20/18 12:55:11

Academic license - for non-commercial use only

Gurobi 7.5.2 (win64, Python) logging started 03/20/18 12:55:57

Academic license - for non-commercial use only

Gurobi 7.5.2 (win64, Python) logging started 03/20/18 12:56:24

Academic license - for non-commercial use only

Gurobi 7.5.2 (win64, Python) logging started 03/20/18 12:56:38

Academic license - for non-commercial use only

Gurobi 7.5.2 (win64, Python) logging started 03/20/18 12:56:58

Academic license - for non-commercial use only

Gurobi 7.5.2 (win64, Python) logging started 03/20/18 12:57:12

Academic license - for non-commercial use only

Gurobi 7.5.2 (win64, Python) logging started 03/20/18 12:58:19

Academic license - for non-commercial use only

Gurobi 7.5.2 (win64, Python) logging started 03/20/18 12:59:03

Academic license - for non-commercial use only

Gurobi 7.5.2 (win64, Python) logging started 03/20/18 12:59:17

Academic license - for non-commercial use only

Gurobi 7.5.2 (win64, Python) logging started 03/20/18 13:02:10

Academic license - for non-commercial use only

Gurobi 7.5.2 (win64, Python) logging started 03/20/18 13:02:25

Academic license - for non-commercial use only

Gurobi 7.5.2 (win64, Python) logging started 03/20/18 13:05:53

Academic license - for non-commercial use only

Gurobi 7.5.2 (win64, Python) logging started 03/20/18 13:06:56

Academic license - for non-commercial use only

Gurobi 7.5.2 (win64, Python) logging started 03/20/18 13:07:14

Academic license - for non-commercial use only

Gurobi 7.5.2 (win64, Python) logging started 03/20/18 13:07:26

Academic license - for non-commercial use only

Gurobi 7.5.2 (win64, Python) logging started 03/20/18 13:07:37

Academic license - for non-commercial use only

Gurobi 7.5.2 (win64, Python) logging started 03/20/18 13:07:51

Academic license - for non-commercial use only

Gurobi 7.5.2 (win64, Python) logging started 03/20/18 13:08:09

Academic license - for non-commercial use only

Gurobi 7.5.2 (win64, Python) logging started 03/20/18 13:08:45

Academic license - for non-commercial use only

Gurobi 7.5.2 (win64, Python) logging started 03/20/18 13:09:09

Academic license - for non-commercial use only

Gurobi 7.5.2 (win64, Python) logging started 03/20/18 13:09:49

Academic license - for non-commercial use only

Gurobi 7.5.2 (win64, Python) logging started 03/20/18 13:11:15

Academic license - for non-commercial use only

Gurobi 7.5.2 (win64, Python) logging started 03/20/18 13:11:46

Academic license - for non-commercial use only

Gurobi 7.5.2 (win64, Python) logging started 03/20/18 13:11:56

Academic license - for non-commercial use only

Gurobi 7.5.2 (win64, Python) logging started 03/20/18 13:12:08

Academic license - for non-commercial use only

Gurobi 7.5.2 (win64, Python) logging started 03/20/18 13:12:18

Academic license - for non-commercial use only

Gurobi 7.5.2 (win64, Python) logging started 03/20/18 13:12:27

Academic license - for non-commercial use only

Gurobi 7.5.2 (win64, Python) logging started 03/20/18 13:12:36

Academic license - for non-commercial use only

Gurobi 7.5.2 (win64, Python) logging started 03/20/18 13:12:46

Academic license - for non-commercial use only

Gurobi 7.5.2 (win64, Python) logging started 03/20/18 13:13:00

Academic license - for non-commercial use only

Gurobi 7.5.2 (win64, Python) logging started 03/20/18 13:14:17

Academic license - for non-commercial use only

Gurobi 7.5.2 (win64, Python) logging started 03/20/18 13:14:38

Academic license - for non-commercial use only

Gurobi 7.5.2 (win64, Python) logging started 03/20/18 13:14:54

Academic license - for non-commercial use only

Gurobi 7.5.2 (win64, Python) logging started 03/20/18 13:20:22

Academic license - for non-commercial use only

Gurobi 7.5.2 (win64, Python) logging started 03/20/18 13:22:50

Academic license - for non-commercial use only

Gurobi 7.5.2 (win64, Python) logging started 03/20/18 13:23:19

Academic license - for non-commercial use only

Gurobi 7.5.2 (win64, Python) logging started 03/20/18 13:24:06

Academic license - for non-commercial use only

Gurobi 7.5.2 (win64, Python) logging started 03/20/18 13:38:12

Academic license - for non-commercial use only

Gurobi 7.5.2 (win64, Python) logging started 03/20/18 13:38:49

Academic license - for non-commercial use only

Gurobi 7.5.2 (win64, Python) logging started 03/20/18 13:43:12

Academic license - for non-commercial use only

Gurobi 7.5.2 (win64, Python) logging started 03/20/18 13:43:37

Academic license - for non-commercial use only

Gurobi 7.5.2 (win64, Python) logging started 03/20/18 13:46:16

Academic license - for non-commercial use only

Gurobi 7.5.2 (win64, Python) logging started 03/20/18 13:47:17

Academic license - for non-commercial use only

Gurobi 7.5.2 (win64, Python) logging started 03/20/18 13:49:37

Academic license - for non-commercial use only

Gurobi 7.5.2 (win64, Python) logging started 03/20/18 15:13:31

Academic license - for non-commercial use only

Gurobi 7.5.2 (win64, Python) logging started 03/20/18 16:16:05

Academic license - for non-commercial use only

Gurobi 7.5.2 (win64, Python) logging started 03/20/18 16:17:25

Academic license - for non-commercial use only

Gurobi 7.5.2 (win64, Python) logging started 03/20/18 16:24:13

Academic license - for non-commercial use only

Gurobi 7.5.2 (win64, Python) logging started 03/20/18 16:25:01

Academic license - for non-commercial use only

Gurobi 7.5.2 (win64, Python) logging started 03/20/18 16:36:19

Academic license - for non-commercial use only

Gurobi 7.5.2 (win64, Python) logging started 03/20/18 16:36:26

Academic license - for non-commercial use only

Gurobi 7.5.2 (win64, Python) logging started 03/20/18 16:36:38

Academic license - for non-commercial use only

Gurobi 7.5.2 (win64, Python) logging started 03/20/18 16:36:58

Academic license - for non-commercial use only

Gurobi 7.5.2 (win64, Python) logging started 03/20/18 16:39:44

Academic license - for non-commercial use only

Gurobi 7.5.2 (win64, Python) logging started 03/20/18 16:43:39

Academic license - for non-commercial use only

Gurobi 7.5.2 (win64, Python) logging started 03/20/18 16:43:53

Academic license - for non-commercial use only

Gurobi 7.5.2 (win64, Python) logging started 03/20/18 16:44:26

Academic license - for non-commercial use only

Gurobi 7.5.2 (win64, Python) logging started 03/22/18 11:37:48

Academic license - for non-commercial use only

Gurobi 7.5.2 (win64, Python) logging started 03/22/18 11:43:49

Academic license - for non-commercial use only

Gurobi 7.5.2 (win64, Python) logging started 03/22/18 11:44:11

Academic license - for non-commercial use only

Gurobi 7.5.2 (win64, Python) logging started 03/22/18 11:44:23

Academic license - for non-commercial use only

Gurobi 7.5.2 (win64, Python) logging started 03/22/18 11:44:35

Academic license - for non-commercial use only

Gurobi 7.5.2 (win64, Python) logging started 03/22/18 11:44:48

Academic license - for non-commercial use only

Gurobi 7.5.2 (win64, Python) logging started 03/22/18 11:45:14

Academic license - for non-commercial use only
